11
-1 56 11 2 34 72 55 28 46 62 86
75 -1 69 42 44 16 81 98 22 51 21
99 57 -1 92 89 75 12 10 3 69 61
88 1 89 -1 23 2 85 82 85 88 26
17 57 32 32 -1 54 21 89 76 29 68
92 25 55 34 49 -1 12 45 60 18 53
39 23 79 96 87 29 -1 37 66 49 93
95 97 16 86 5 88 82 -1 34 14 1
16 71 86 63 13 55 85 53 -1 8 32
45 13 56 21 58 46 82 81 44 -1 22
29 61 35 50 73 66 44 59 92 39 -1